c E(3,1) E(1,3) E(0,3) E(3,0) E(2,3) E(3,2) E(1,0) E(0,1) E(2,1) E(1,2) E(0,2) E(2,0)
c 1 2 3 4 5 6 7 8 9 10 11 12
p cnf 12 28
8 -8 0
8 -7 0
11 -11 0
11 -12 0
3 -3 0
3 -4 0
7 -8 0
7 -7 0
10 -10 0
10 -9 0
2 -2 0
2 -1 0
12 -11 0
12 -12 0
9 -10 0
9 -9 0
5 -5 0
5 -6 0
4 -3 0
4 -4 0
1 -2 0
1 -1 0
6 -5 0
6 -6 0
8 11 3 0
7 10 2 0
12 9 5 0
4 1 6 0
